\ Model qkp01
\ LP format - for model browsing. Use MPS format to capture full model detail.
Maximize
  15 x_4 + 36 x_6 + 17 x_12 + 3 x_15 + 31 x_16 + 26 x_17 + 39 x_37 + 18 x_44
   + 44 x_63 + 39 x_71 + 22 x_79 + 18 x_80 + 50 x_98 + [ 70 x_1 * x_7
   + 56 x_1 * x_8 + 50 x_1 * x_10 + 4 x_1 * x_12 + 72 x_1 * x_13
   + 20 x_1 * x_24 + 4 x_1 * x_25 + 22 x_1 * x_29 + 14 x_1 * x_32
   + 74 x_1 * x_38 + 24 x_1 * x_41 + 44 x_1 * x_42 + 18 x_1 * x_45
   + 40 x_1 * x_46 + 58 x_1 * x_47 + 70 x_1 * x_50 + 14 x_1 * x_52
   + 92 x_1 * x_54 + 32 x_1 * x_63 + 50 x_1 * x_65 + 14 x_1 * x_68
   + 82 x_1 * x_70 + 88 x_1 * x_73 + 2 x_1 * x_78 + 30 x_1 * x_95
   + 72 x_1 * x_96 + 42 x_1 * x_97 + 36 x_1 * x_98 + 58 x_2 * x_3
   + 44 x_2 * x_12 + 28 x_2 * x_15 + 66 x_2 * x_16 + 24 x_2 * x_17
   + 16 x_2 * x_20 + 96 x_2 * x_23 + 18 x_2 * x_24 + 44 x_2 * x_26
   + 34 x_2 * x_34 + 50 x_2 * x_35 + 64 x_2 * x_40 + 62 x_2 * x_42
   + 10 x_2 * x_46 + 76 x_2 * x_50 + 12 x_2 * x_56 + 24 x_2 * x_58
   + 100 x_2 * x_59 + 18 x_2 * x_75 + 96 x_2 * x_79 + 24 x_2 * x_92
   + 26 x_2 * x_94 + 14 x_2 * x_95 + 62 x_3 * x_4 + 10 x_3 * x_11
   + 70 x_3 * x_13 + 100 x_3 * x_17 + 100 x_3 * x_19 + 94 x_3 * x_23
   + 56 x_3 * x_25 + 20 x_3 * x_26 + 32 x_3 * x_28 + 14 x_3 * x_33
   + 98 x_3 * x_35 + 78 x_3 * x_44 + 100 x_3 * x_45 + 6 x_3 * x_47
   + 92 x_3 * x_48 + 2 x_3 * x_60 + 90 x_3 * x_66 + 48 x_3 * x_68
   + 18 x_3 * x_69 + 96 x_3 * x_86 + 28 x_3 * x_90 + 32 x_3 * x_92
   + 36 x_3 * x_94 + 36 x_3 * x_95 + 66 x_3 * x_97 + 70 x_3 * x_98
   + 52 x_3 * x_99 + 56 x_3 * x_100 + 64 x_4 * x_5 + 28 x_4 * x_18
   + 82 x_4 * x_24 + 10 x_4 * x_25 + 88 x_4 * x_34 + 56 x_4 * x_35
   + 64 x_4 * x_36 + 46 x_4 * x_38 + 62 x_4 * x_40 + 28 x_4 * x_41
   + 48 x_4 * x_44 + 10 x_4 * x_48 + 64 x_4 * x_51 + 62 x_4 * x_52
   + 34 x_4 * x_53 + 90 x_4 * x_54 + 10 x_4 * x_55 + 20 x_4 * x_59
   + 52 x_4 * x_61 + 88 x_4 * x_75 + 20 x_4 * x_78 + 56 x_4 * x_79
   + 34 x_4 * x_85 + 12 x_4 * x_87 + 82 x_4 * x_88 + 82 x_4 * x_91
   + 84 x_4 * x_94 + 38 x_4 * x_99 + 78 x_5 * x_7 + 70 x_5 * x_10
   + 50 x_5 * x_12 + 60 x_5 * x_13 + 12 x_5 * x_14 + 52 x_5 * x_18
   + 76 x_5 * x_26 + 18 x_5 * x_31 + 84 x_5 * x_33 + 88 x_5 * x_38
   + 18 x_5 * x_42 + 10 x_5 * x_43 + 54 x_5 * x_44 + 54 x_5 * x_45
   + 36 x_5 * x_46 + 96 x_5 * x_53 + 60 x_5 * x_58 + 90 x_5 * x_60
   + 54 x_5 * x_61 + 2 x_5 * x_62 + 96 x_5 * x_70 + 20 x_5 * x_73
   + 26 x_5 * x_75 + 30 x_5 * x_81 + 94 x_5 * x_88 + 8 x_5 * x_95
   + 52 x_5 * x_97 + 24 x_5 * x_99 + 16 x_6 * x_9 + 88 x_6 * x_12
   + 24 x_6 * x_18 + 86 x_6 * x_22 + 48 x_6 * x_26 + 58 x_6 * x_44
   + 66 x_6 * x_55 + 30 x_6 * x_71 + 6 x_6 * x_72 + 2 x_6 * x_75
   + 58 x_6 * x_77 + 30 x_6 * x_80 + 80 x_6 * x_85 + 42 x_6 * x_88
   + 2 x_6 * x_94 + 22 x_6 * x_99 + 24 x_6 * x_100 + 90 x_7 * x_10
   + 28 x_7 * x_12 + 60 x_7 * x_14 + 64 x_7 * x_17 + 12 x_7 * x_20
   + 40 x_7 * x_22 + 64 x_7 * x_25 + 50 x_7 * x_32 + 30 x_7 * x_38
   + 4 x_7 * x_40 + 54 x_7 * x_41 + 92 x_7 * x_43 + 90 x_7 * x_48
   + 4 x_7 * x_49 + 100 x_7 * x_50 + 8 x_7 * x_52 + 46 x_7 * x_57
   + 90 x_7 * x_59 + 56 x_7 * x_62 + 32 x_7 * x_66 + 58 x_7 * x_71
   + 70 x_7 * x_74 + 28 x_7 * x_81 + 40 x_7 * x_85 + 26 x_7 * x_87
   + 22 x_7 * x_90 + 58 x_7 * x_91 + 46 x_7 * x_92 + 94 x_7 * x_95
   + 28 x_7 * x_99 + 84 x_8 * x_11 + 80 x_8 * x_12 + 34 x_8 * x_16
   + 8 x_8 * x_19 + 66 x_8 * x_20 + 40 x_8 * x_22 + 54 x_8 * x_23
   + 4 x_8 * x_25 + 56 x_8 * x_28 + 18 x_8 * x_32 + 24 x_8 * x_35
   + 74 x_8 * x_43 + 36 x_8 * x_55 + 30 x_8 * x_60 + 82 x_8 * x_61
   + 64 x_8 * x_62 + 60 x_8 * x_67 + 92 x_8 * x_68 + 84 x_8 * x_69
   + 26 x_8 * x_76 + 64 x_8 * x_80 + 90 x_8 * x_83 + 28 x_8 * x_85
   + 92 x_8 * x_91 + 4 x_8 * x_94 + 88 x_8 * x_96 + 86 x_8 * x_98
   + 36 x_9 * x_10 + 64 x_9 * x_22 + 8 x_9 * x_25 + 48 x_9 * x_36
   + 44 x_9 * x_41 + 44 x_9 * x_43 + 82 x_9 * x_52 + 14 x_9 * x_60
   + 12 x_9 * x_64 + 26 x_9 * x_65 + 72 x_9 * x_66 + 24 x_9 * x_67
   + 94 x_9 * x_68 + 64 x_9 * x_71 + 10 x_9 * x_81 + 32 x_9 * x_88
   + 14 x_9 * x_91 + 46 x_9 * x_93 + 72 x_10 * x_19 + 54 x_10 * x_20
   + 32 x_10 * x_25 + 42 x_10 * x_30 + 84 x_10 * x_33 + 92 x_10 * x_35
   + 8 x_10 * x_39 + 22 x_10 * x_43 + 60 x_10 * x_44 + 60 x_10 * x_46
   + 36 x_10 * x_58 + 42 x_10 * x_59 + 100 x_10 * x_61 + 36 x_10 * x_62
   + 40 x_10 * x_63 + 82 x_10 * x_71 + 38 x_10 * x_74 + 30 x_10 * x_75
   + 92 x_10 * x_78 + 6 x_10 * x_81 + 18 x_10 * x_88 + 72 x_10 * x_90
   + 78 x_10 * x_91 + 28 x_10 * x_93 + 34 x_10 * x_94 + 50 x_11 * x_15
   + 18 x_11 * x_17 + 38 x_11 * x_22 + 92 x_11 * x_26 + 48 x_11 * x_34
   + 32 x_11 * x_41 + 98 x_11 * x_45 + 30 x_11 * x_55 + 8 x_11 * x_58
   + 38 x_11 * x_64 + 32 x_11 * x_67 + 10 x_11 * x_71 + 12 x_11 * x_72
   + 88 x_11 * x_74 + 24 x_11 * x_85 + 38 x_11 * x_87 + 58 x_11 * x_88
   + 60 x_11 * x_92 + 28 x_12 * x_14 + 46 x_12 * x_15 + 96 x_12 * x_16
   + 14 x_12 * x_18 + 78 x_12 * x_21 + 20 x_12 * x_30 + 44 x_12 * x_32
   + 12 x_12 * x_33 + 60 x_12 * x_34 + 90 x_12 * x_40 + 56 x_12 * x_42
   + 90 x_12 * x_45 + 68 x_12 * x_47 + 80 x_12 * x_51 + 90 x_12 * x_52
   + 36 x_12 * x_61 + 48 x_12 * x_73 + 94 x_12 * x_77 + 58 x_12 * x_82
   + 10 x_12 * x_93 + 24 x_12 * x_98 + 44 x_13 * x_14 + 80 x_13 * x_16
   + 86 x_13 * x_19 + 70 x_13 * x_21 + 18 x_13 * x_22 + 100 x_13 * x_32
   + 60 x_13 * x_34 + 90 x_13 * x_38 + 44 x_13 * x_40 + 62 x_13 * x_46
   + 78 x_13 * x_56 + 56 x_13 * x_60 + 46 x_13 * x_62 + 92 x_13 * x_64
   + 44 x_13 * x_65 + 54 x_13 * x_74 + 22 x_13 * x_75 + 78 x_13 * x_76
   + 94 x_13 * x_77 + 20 x_13 * x_89 + 26 x_13 * x_90 + 80 x_13 * x_92
   + 26 x_13 * x_93 + 76 x_13 * x_95 + 50 x_13 * x_98 + 48 x_13 * x_99
   + 64 x_14 * x_17 + 52 x_14 * x_25 + 4 x_14 * x_27 + 90 x_14 * x_32
   + 60 x_14 * x_33 + 76 x_14 * x_36 + 24 x_14 * x_37 + 60 x_14 * x_38
   + 80 x_14 * x_41 + 56 x_14 * x_42 + 96 x_14 * x_49 + 66 x_14 * x_63
   + 30 x_14 * x_67 + 32 x_14 * x_68 + 18 x_14 * x_69 + 52 x_14 * x_75
   + 12 x_14 * x_77 + 34 x_14 * x_87 + 22 x_14 * x_98 + 72 x_15 * x_19
   + 44 x_15 * x_21 + 66 x_15 * x_23 + 50 x_15 * x_24 + 94 x_15 * x_25
   + 68 x_15 * x_27 + 70 x_15 * x_28 + 58 x_15 * x_30 + 40 x_15 * x_34
   + 78 x_15 * x_39 + 100 x_15 * x_41 + 60 x_15 * x_43 + 30 x_15 * x_47
   + 76 x_15 * x_49 + 66 x_15 * x_52 + 82 x_15 * x_53 + 24 x_15 * x_57
   + 6 x_15 * x_58 + 64 x_15 * x_60 + 80 x_15 * x_62 + 80 x_15 * x_72
   + 90 x_15 * x_76 + 14 x_15 * x_77 + 74 x_15 * x_79 + 44 x_15 * x_80
   + 2 x_15 * x_81 + 76 x_15 * x_84 + 98 x_15 * x_87 + 42 x_15 * x_98
   + 52 x_16 * x_18 + 62 x_16 * x_19 + 36 x_16 * x_20 + 34 x_16 * x_26
   + 92 x_16 * x_39 + 46 x_16 * x_42 + 12 x_16 * x_44 + 22 x_16 * x_53
   + 12 x_16 * x_54 + 64 x_16 * x_59 + 94 x_16 * x_65 + 4 x_16 * x_66
   + 48 x_16 * x_69 + 50 x_16 * x_73 + 32 x_16 * x_75 + 48 x_16 * x_79
   + 20 x_16 * x_94 + 48 x_16 * x_95 + 2 x_16 * x_99 + 44 x_16 * x_100
   + 92 x_17 * x_18 + 76 x_17 * x_19 + 62 x_17 * x_21 + 96 x_17 * x_25
   + 60 x_17 * x_29 + 54 x_17 * x_35 + 42 x_17 * x_36 + 64 x_17 * x_37
   + 66 x_17 * x_38 + 94 x_17 * x_47 + 48 x_17 * x_51 + 44 x_17 * x_53
   + 80 x_17 * x_55 + 12 x_17 * x_59 + 44 x_17 * x_68 + 82 x_17 * x_74
   + 4 x_17 * x_77 + 50 x_17 * x_82 + 12 x_17 * x_85 + 56 x_17 * x_86
   + 76 x_17 * x_96 + 52 x_17 * x_98 + 22 x_18 * x_26 + 50 x_18 * x_27
   + 24 x_18 * x_29 + 90 x_18 * x_30 + 6 x_18 * x_31 + 88 x_18 * x_33
   + 20 x_18 * x_36 + 12 x_18 * x_46 + 80 x_18 * x_59 + 52 x_18 * x_60
   + 30 x_18 * x_61 + 14 x_18 * x_64 + 58 x_18 * x_66 + 48 x_18 * x_73
   + 2 x_18 * x_79 + 78 x_18 * x_81 + 26 x_18 * x_82 + 2 x_18 * x_90
   + 80 x_18 * x_93 + 32 x_18 * x_95 + 82 x_18 * x_98 + 90 x_18 * x_100
   + 56 x_19 * x_24 + 26 x_19 * x_27 + 74 x_19 * x_32 + 86 x_19 * x_33
   + 78 x_19 * x_35 + 100 x_19 * x_38 + 2 x_19 * x_40 + 92 x_19 * x_41
   + 30 x_19 * x_43 + 64 x_19 * x_45 + 12 x_19 * x_55 + 22 x_19 * x_60
   + 16 x_19 * x_66 + 86 x_19 * x_67 + 100 x_19 * x_69 + 46 x_19 * x_73
   + 70 x_19 * x_76 + 76 x_19 * x_78 + 52 x_19 * x_84 + 82 x_19 * x_89
   + 98 x_19 * x_90 + 42 x_19 * x_91 + 4 x_19 * x_96 + 16 x_19 * x_97
   + 46 x_19 * x_98 + 66 x_19 * x_99 + 42 x_20 * x_21 + 60 x_20 * x_28
   + 60 x_20 * x_30 + 50 x_20 * x_33 + 30 x_20 * x_36 + 46 x_20 * x_38
   + 60 x_20 * x_45 + 72 x_20 * x_48 + 24 x_20 * x_52 + 50 x_20 * x_54
   + 84 x_20 * x_59 + 12 x_20 * x_64 + 26 x_20 * x_67 + 70 x_20 * x_70
   + 80 x_20 * x_74 + 12 x_20 * x_78 + 70 x_20 * x_79 + 20 x_20 * x_82
   + 70 x_20 * x_88 + 96 x_20 * x_89 + 4 x_20 * x_98 + 60 x_21 * x_23
   + 26 x_21 * x_29 + 40 x_21 * x_34 + 40 x_21 * x_38 + 80 x_21 * x_39
   + 100 x_21 * x_46 + 8 x_21 * x_50 + 38 x_21 * x_52 + 10 x_21 * x_56
   + 56 x_21 * x_59 + 62 x_21 * x_60 + 50 x_21 * x_62 + 84 x_21 * x_68
   + 20 x_21 * x_73 + 30 x_21 * x_76 + 96 x_21 * x_78 + 60 x_21 * x_80
   + 58 x_21 * x_81 + 90 x_21 * x_82 + 20 x_21 * x_83 + 16 x_21 * x_90
   + 72 x_21 * x_96 + 78 x_21 * x_100 + 52 x_22 * x_24 + 100 x_22 * x_33
   + 86 x_22 * x_34 + 92 x_22 * x_41 + 2 x_22 * x_45 + 78 x_22 * x_51
   + 24 x_22 * x_58 + 84 x_22 * x_62 + 40 x_22 * x_66 + 96 x_22 * x_68
   + 34 x_22 * x_70 + 4 x_22 * x_74 + 4 x_22 * x_75 + 8 x_22 * x_81
   + 30 x_22 * x_85 + 18 x_22 * x_87 + 90 x_22 * x_89 + 62 x_22 * x_98
   + 36 x_22 * x_100 + 8 x_23 * x_24 + 32 x_23 * x_26 + 34 x_23 * x_31
   + 18 x_23 * x_34 + 84 x_23 * x_40 + 18 x_23 * x_41 + 78 x_23 * x_42
   + 100 x_23 * x_44 + 48 x_23 * x_52 + 34 x_23 * x_58 + 92 x_23 * x_62
   + 98 x_23 * x_65 + 88 x_23 * x_66 + 8 x_23 * x_75 + 56 x_23 * x_77
   + 44 x_23 * x_78 + 62 x_23 * x_81 + 62 x_23 * x_84 + 58 x_23 * x_86
   + 54 x_23 * x_88 + 46 x_23 * x_95 + 16 x_23 * x_98 + 22 x_23 * x_99
   + 34 x_24 * x_26 + 28 x_24 * x_27 + 68 x_24 * x_31 + 20 x_24 * x_32
   + 46 x_24 * x_35 + 42 x_24 * x_36 + 34 x_24 * x_43 + 20 x_24 * x_48
   + 66 x_24 * x_52 + 52 x_24 * x_54 + 32 x_24 * x_58 + 80 x_24 * x_62
   + 4 x_24 * x_66 + 100 x_24 * x_72 + 44 x_24 * x_73 + 14 x_24 * x_76
   + 68 x_24 * x_77 + 62 x_24 * x_82 + 58 x_24 * x_86 + 72 x_24 * x_88
   + 34 x_24 * x_95 + 32 x_24 * x_96 + 32 x_24 * x_98 + 100 x_24 * x_99
   + 50 x_25 * x_28 + 76 x_25 * x_30 + 40 x_25 * x_33 + 4 x_25 * x_46
   + 50 x_25 * x_47 + 32 x_25 * x_52 + 32 x_25 * x_53 + 78 x_25 * x_56
   + 58 x_25 * x_57 + 20 x_25 * x_59 + 88 x_25 * x_61 + 58 x_25 * x_64
   + 16 x_25 * x_65 + 92 x_25 * x_66 + 70 x_25 * x_69 + 44 x_25 * x_70
   + 26 x_25 * x_73 + 72 x_25 * x_76 + 68 x_25 * x_78 + 20 x_25 * x_81
   + 12 x_25 * x_82 + 48 x_25 * x_87 + 54 x_25 * x_93 + 14 x_25 * x_96
   + 62 x_26 * x_27 + 46 x_26 * x_29 + 28 x_26 * x_40 + 30 x_26 * x_42
   + 58 x_26 * x_47 + 42 x_26 * x_51 + 98 x_26 * x_52 + 18 x_26 * x_55
   + 84 x_26 * x_64 + 36 x_26 * x_69 + 82 x_26 * x_81 + 50 x_26 * x_86
   + 14 x_26 * x_87 + 58 x_26 * x_91 + 48 x_26 * x_94 + 82 x_26 * x_100
   + 96 x_27 * x_32 + 34 x_27 * x_34 + 72 x_27 * x_43 + 78 x_27 * x_51
   + 16 x_27 * x_54 + 32 x_27 * x_61 + 90 x_27 * x_62 + 48 x_27 * x_66
   + 98 x_27 * x_72 + 32 x_27 * x_75 + 68 x_27 * x_82 + 98 x_27 * x_86
   + 24 x_27 * x_97 + 58 x_28 * x_34 + 80 x_28 * x_35 + 94 x_28 * x_40
   + 12 x_28 * x_41 + 90 x_28 * x_43 + 56 x_28 * x_44 + 52 x_28 * x_48
   + 32 x_28 * x_51 + 80 x_28 * x_54 + 16 x_28 * x_57 + 28 x_28 * x_62
   + 70 x_28 * x_71 + 56 x_28 * x_74 + 98 x_28 * x_75 + 42 x_28 * x_77
   + 70 x_28 * x_81 + 22 x_28 * x_85 + 20 x_28 * x_94 + 72 x_29 * x_31
   + 32 x_29 * x_32 + 96 x_29 * x_38 + 94 x_29 * x_40 + 96 x_29 * x_43
   + 58 x_29 * x_44 + 40 x_29 * x_45 + 2 x_29 * x_49 + 24 x_29 * x_52
   + 82 x_29 * x_59 + 76 x_29 * x_61 + 54 x_29 * x_66 + 58 x_29 * x_69
   + 62 x_29 * x_78 + 84 x_29 * x_91 + 64 x_29 * x_99 + 22 x_30 * x_34
   + 30 x_30 * x_36 + 62 x_30 * x_38 + 44 x_30 * x_41 + 92 x_30 * x_49
   + 44 x_30 * x_51 + 82 x_30 * x_61 + 60 x_30 * x_73 + 8 x_30 * x_74
   + 56 x_30 * x_76 + 58 x_30 * x_79 + 70 x_30 * x_80 + 98 x_30 * x_82
   + 2 x_30 * x_85 + 22 x_30 * x_87 + 88 x_30 * x_91 + 16 x_30 * x_95
   + 24 x_30 * x_100 + 96 x_31 * x_36 + 76 x_31 * x_37 + 18 x_31 * x_43
   + 12 x_31 * x_44 + 44 x_31 * x_45 + 60 x_31 * x_53 + 80 x_31 * x_54
   + 72 x_31 * x_55 + 84 x_31 * x_56 + 30 x_31 * x_66 + 42 x_31 * x_67
   + 58 x_31 * x_73 + 74 x_31 * x_74 + 16 x_31 * x_76 + 62 x_31 * x_77
   + 96 x_31 * x_78 + 88 x_31 * x_80 + 30 x_31 * x_81 + 66 x_31 * x_89
   + 100 x_31 * x_93 + 44 x_31 * x_96 + 2 x_31 * x_97 + 78 x_31 * x_98
   + 74 x_32 * x_37 + 86 x_32 * x_41 + 26 x_32 * x_42 + 88 x_32 * x_46
   + 4 x_32 * x_51 + 14 x_32 * x_52 + 82 x_32 * x_60 + 60 x_32 * x_61
   + 2 x_32 * x_69 + 62 x_32 * x_74 + 68 x_32 * x_81 + 88 x_32 * x_84
   + 70 x_32 * x_90 + 6 x_32 * x_95 + 26 x_32 * x_98 + 84 x_32 * x_100
   + 34 x_33 * x_35 + 96 x_33 * x_36 + 74 x_33 * x_40 + 46 x_33 * x_41
   + 42 x_33 * x_42 + 12 x_33 * x_45 + 10 x_33 * x_54 + 90 x_33 * x_64
   + 16 x_33 * x_65 + 12 x_33 * x_74 + 78 x_33 * x_76 + 6 x_33 * x_81
   + 12 x_33 * x_86 + 72 x_33 * x_87 + 68 x_33 * x_88 + 26 x_33 * x_90
   + 38 x_33 * x_92 + 22 x_33 * x_94 + 8 x_33 * x_97 + 84 x_33 * x_98
   + 32 x_33 * x_100 + 46 x_34 * x_35 + 56 x_34 * x_37 + 14 x_34 * x_47
   + 80 x_34 * x_48 + 58 x_34 * x_49 + 8 x_34 * x_50 + 66 x_34 * x_52
   + 20 x_34 * x_53 + 52 x_34 * x_57 + 24 x_34 * x_58 + 26 x_34 * x_62
   + 86 x_34 * x_76 + 56 x_34 * x_84 + 6 x_34 * x_87 + 78 x_34 * x_90
   + 64 x_34 * x_92 + 86 x_34 * x_99 + 28 x_35 * x_40 + 12 x_35 * x_42
   + 14 x_35 * x_47 + 2 x_35 * x_50 + 32 x_35 * x_53 + 26 x_35 * x_55
   + 12 x_35 * x_57 + 70 x_35 * x_58 + 54 x_35 * x_60 + 72 x_35 * x_64
   + 48 x_35 * x_67 + 86 x_35 * x_72 + 36 x_35 * x_78 + 8 x_35 * x_80
   + 34 x_35 * x_81 + 68 x_35 * x_86 + 98 x_35 * x_91 + 54 x_35 * x_95
   + 4 x_35 * x_100 + 22 x_36 * x_37 + 46 x_36 * x_47 + 74 x_36 * x_52
   + 56 x_36 * x_53 + 8 x_36 * x_58 + 40 x_36 * x_59 + 82 x_36 * x_60
   + 32 x_36 * x_61 + 42 x_36 * x_70 + 94 x_36 * x_72 + 10 x_36 * x_74
   + 36 x_36 * x_75 + 94 x_36 * x_80 + 100 x_36 * x_82 + 18 x_36 * x_89
   + 12 x_36 * x_90 + 4 x_36 * x_95 + 6 x_36 * x_99 + 26 x_37 * x_41
   + 52 x_37 * x_42 + 68 x_37 * x_43 + 6 x_37 * x_49 + 26 x_37 * x_51
   + 58 x_37 * x_54 + 16 x_37 * x_55 + 42 x_37 * x_59 + 88 x_37 * x_62
   + 88 x_37 * x_64 + 62 x_37 * x_65 + 66 x_37 * x_71 + 88 x_37 * x_73
   + 48 x_37 * x_84 + 36 x_37 * x_89 + 50 x_37 * x_91 + 6 x_37 * x_92
   + 4 x_37 * x_93 + 72 x_37 * x_96 + 60 x_37 * x_99 + 6 x_38 * x_40
   + 24 x_38 * x_42 + 50 x_38 * x_47 + 50 x_38 * x_50 + 56 x_38 * x_51
   + 40 x_38 * x_58 + 20 x_38 * x_64 + 82 x_38 * x_70 + 74 x_38 * x_72
   + 84 x_38 * x_73 + 66 x_38 * x_78 + 6 x_38 * x_79 + 74 x_38 * x_83
   + 40 x_38 * x_97 + 54 x_38 * x_99 + 18 x_39 * x_46 + 30 x_39 * x_51
   + 60 x_39 * x_57 + 48 x_39 * x_63 + 78 x_39 * x_64 + 22 x_39 * x_69
   + 52 x_39 * x_72 + 4 x_39 * x_79 + 62 x_39 * x_83 + 90 x_39 * x_84
   + 88 x_39 * x_88 + 8 x_39 * x_91 + 80 x_39 * x_93 + 20 x_39 * x_95
   + 100 x_39 * x_99 + 56 x_40 * x_42 + 74 x_40 * x_44 + 84 x_40 * x_47
   + 96 x_40 * x_49 + 70 x_40 * x_53 + 40 x_40 * x_55 + 16 x_40 * x_67
   + 34 x_40 * x_74 + 16 x_40 * x_76 + 56 x_40 * x_85 + 54 x_40 * x_88
   + 98 x_40 * x_93 + 88 x_41 * x_43 + 40 x_41 * x_46 + 86 x_41 * x_50
   + 90 x_41 * x_52 + 98 x_41 * x_61 + 80 x_41 * x_66 + 54 x_41 * x_67
   + 62 x_41 * x_70 + 52 x_41 * x_78 + 90 x_41 * x_82 + 72 x_41 * x_86
   + 46 x_41 * x_90 + 70 x_41 * x_95 + 26 x_42 * x_50 + 100 x_42 * x_51
   + 16 x_42 * x_59 + 88 x_42 * x_60 + 70 x_42 * x_64 + 38 x_42 * x_69
   + 96 x_42 * x_70 + 32 x_42 * x_72 + 28 x_42 * x_73 + 36 x_42 * x_81
   + 2 x_42 * x_90 + 98 x_42 * x_91 + 64 x_42 * x_94 + 88 x_42 * x_96
   + 56 x_42 * x_98 + 28 x_42 * x_100 + 4 x_43 * x_45 + 78 x_43 * x_55
   + 48 x_43 * x_56 + 14 x_43 * x_69 + 90 x_43 * x_70 + 54 x_43 * x_79
   + 18 x_43 * x_90 + 66 x_43 * x_91 + 46 x_44 * x_55 + 94 x_44 * x_64
   + 38 x_44 * x_75 + 20 x_44 * x_91 + 68 x_44 * x_92 + 74 x_44 * x_94
   + 36 x_44 * x_95 + 44 x_44 * x_96 + 66 x_44 * x_98 + 6 x_44 * x_100
   + 70 x_45 * x_46 + 24 x_45 * x_47 + 82 x_45 * x_49 + 4 x_45 * x_51
   + 44 x_45 * x_54 + 40 x_45 * x_56 + 32 x_45 * x_58 + 6 x_45 * x_70
   + 36 x_45 * x_72 + 12 x_45 * x_76 + 36 x_45 * x_78 + 88 x_45 * x_82
   + 18 x_45 * x_84 + 76 x_45 * x_87 + 74 x_45 * x_94 + 94 x_45 * x_95
   + 100 x_45 * x_96 + 4 x_45 * x_100 + 24 x_46 * x_51 + 24 x_46 * x_56
   + 88 x_46 * x_65 + 44 x_46 * x_66 + 50 x_46 * x_67 + 14 x_46 * x_72
   + 26 x_46 * x_79 + 34 x_46 * x_82 + 52 x_46 * x_88 + 88 x_46 * x_89
   + 20 x_46 * x_98 + 62 x_47 * x_58 + 94 x_47 * x_60 + 2 x_47 * x_68
   + 16 x_47 * x_77 + 18 x_47 * x_80 + 2 x_47 * x_88 + 16 x_47 * x_89
   + 14 x_47 * x_92 + 48 x_47 * x_95 + 82 x_47 * x_98 + 80 x_47 * x_100
   + 18 x_48 * x_57 + 50 x_48 * x_59 + 36 x_48 * x_60 + 48 x_48 * x_68
   + 36 x_48 * x_70 + 62 x_48 * x_74 + 54 x_48 * x_78 + 22 x_48 * x_85
   + 8 x_48 * x_86 + 30 x_48 * x_87 + 72 x_48 * x_100 + 54 x_49 * x_58
   + 84 x_49 * x_60 + 74 x_49 * x_62 + 98 x_49 * x_72 + 48 x_49 * x_82
   + 12 x_49 * x_83 + 24 x_49 * x_86 + 30 x_49 * x_98 + 68 x_49 * x_99
   + 20 x_50 * x_52 + 30 x_50 * x_54 + 70 x_50 * x_56 + 40 x_50 * x_60
   + 66 x_50 * x_65 + 70 x_50 * x_70 + 64 x_50 * x_72 + 94 x_50 * x_74
   + 94 x_50 * x_82 + 82 x_50 * x_83 + 38 x_50 * x_84 + 24 x_50 * x_86
   + 72 x_50 * x_91 + 66 x_50 * x_95 + 12 x_50 * x_99 + 50 x_51 * x_55
   + 6 x_51 * x_58 + 96 x_51 * x_68 + 18 x_51 * x_76 + 72 x_51 * x_85
   + 26 x_51 * x_88 + 74 x_51 * x_91 + 6 x_51 * x_94 + 92 x_51 * x_97
   + 76 x_51 * x_98 + 46 x_52 * x_54 + 82 x_52 * x_56 + 62 x_52 * x_57
   + 88 x_52 * x_68 + 42 x_52 * x_70 + 60 x_52 * x_74 + 32 x_52 * x_81
   + 22 x_52 * x_87 + 80 x_52 * x_89 + 34 x_52 * x_97 + 6 x_52 * x_99
   + 52 x_53 * x_55 + 16 x_53 * x_56 + 18 x_53 * x_61 + 10 x_53 * x_69
   + 98 x_53 * x_72 + 10 x_53 * x_73 + 8 x_53 * x_74 + 24 x_53 * x_76
   + 64 x_53 * x_82 + 92 x_53 * x_85 + 82 x_53 * x_90 + 18 x_53 * x_99
   + 94 x_53 * x_100 + 76 x_54 * x_56 + 74 x_54 * x_59 + 70 x_54 * x_60
   + 42 x_54 * x_68 + 68 x_54 * x_70 + 40 x_54 * x_72 + 62 x_54 * x_84
   + 20 x_54 * x_85 + 92 x_54 * x_89 + 18 x_54 * x_98 + 98 x_55 * x_61
   + 76 x_55 * x_62 + 20 x_55 * x_63 + 98 x_55 * x_65 + 46 x_55 * x_78
   + 20 x_55 * x_80 + 18 x_55 * x_84 + 24 x_55 * x_85 + 86 x_55 * x_90
   + 34 x_55 * x_92 + 86 x_55 * x_99 + 48 x_56 * x_58 + 82 x_56 * x_59
   + 68 x_56 * x_64 + 2 x_56 * x_65 + 46 x_56 * x_68 + 16 x_56 * x_77
   + 70 x_56 * x_79 + 46 x_56 * x_90 + 72 x_56 * x_92 + 68 x_56 * x_94
   + 28 x_56 * x_97 + 50 x_56 * x_99 + 64 x_57 * x_60 + 84 x_57 * x_65
   + 10 x_57 * x_73 + 74 x_57 * x_81 + 88 x_57 * x_83 + 96 x_57 * x_85
   + 80 x_57 * x_100 + 40 x_58 * x_59 + 38 x_58 * x_64 + 64 x_58 * x_65
   + 2 x_58 * x_73 + 40 x_58 * x_76 + 36 x_58 * x_85 + 28 x_58 * x_87
   + 16 x_58 * x_88 + 32 x_58 * x_91 + 16 x_59 * x_83 + 38 x_59 * x_84
   + 24 x_59 * x_89 + 34 x_59 * x_90 + 68 x_59 * x_100 + 54 x_60 * x_61
   + 4 x_60 * x_62 + 98 x_60 * x_72 + 80 x_60 * x_73 + 66 x_60 * x_77
   + 18 x_60 * x_81 + 14 x_60 * x_82 + 72 x_60 * x_92 + 50 x_60 * x_97
   + 34 x_61 * x_64 + 40 x_61 * x_86 + 68 x_61 * x_88 + 22 x_61 * x_89
   + 72 x_61 * x_91 + 10 x_61 * x_97 + 98 x_62 * x_66 + 34 x_62 * x_68
   + 8 x_62 * x_72 + 18 x_62 * x_74 + 90 x_62 * x_83 + 20 x_62 * x_89
   + 22 x_62 * x_92 + 98 x_62 * x_94 + 68 x_62 * x_97 + 24 x_63 * x_64
   + 16 x_63 * x_66 + 78 x_63 * x_68 + 70 x_63 * x_69 + 84 x_63 * x_72
   + 58 x_63 * x_77 + 26 x_63 * x_81 + 66 x_63 * x_83 + 44 x_63 * x_86
   + 96 x_63 * x_88 + 64 x_63 * x_89 + 46 x_63 * x_93 + 100 x_63 * x_94
   + 82 x_63 * x_95 + 48 x_63 * x_96 + 12 x_64 * x_66 + 42 x_64 * x_67
   + 60 x_64 * x_69 + 100 x_64 * x_70 + 64 x_64 * x_76 + 6 x_64 * x_80
   + 66 x_64 * x_81 + 28 x_64 * x_88 + 24 x_64 * x_90 + 56 x_64 * x_92
   + 54 x_64 * x_93 + 30 x_64 * x_99 + 30 x_65 * x_75 + 82 x_65 * x_76
   + 56 x_65 * x_77 + 70 x_65 * x_79 + 42 x_65 * x_82 + 58 x_65 * x_87
   + 6 x_65 * x_91 + 10 x_65 * x_92 + 30 x_65 * x_97 + 20 x_65 * x_98
   + 30 x_66 * x_67 + 88 x_66 * x_74 + 14 x_66 * x_79 + 78 x_66 * x_80
   + 74 x_66 * x_82 + 8 x_66 * x_87 + 68 x_66 * x_93 + 28 x_66 * x_99
   + 98 x_67 * x_69 + 50 x_67 * x_70 + 22 x_67 * x_78 + 24 x_67 * x_80
   + 90 x_67 * x_83 + 92 x_67 * x_84 + 60 x_67 * x_91 + 8 x_68 * x_69
   + 50 x_68 * x_84 + 60 x_68 * x_87 + 40 x_68 * x_88 + 22 x_68 * x_90
   + 78 x_68 * x_91 + 52 x_68 * x_95 + 62 x_68 * x_98 + 26 x_68 * x_99
   + 70 x_68 * x_100 + 48 x_69 * x_71 + 64 x_69 * x_73 + 40 x_69 * x_74
   + 88 x_69 * x_77 + 70 x_69 * x_80 + 56 x_69 * x_85 + 56 x_69 * x_86
   + 14 x_69 * x_92 + 14 x_69 * x_95 + 44 x_69 * x_97 + 38 x_69 * x_98
   + 90 x_70 * x_71 + 88 x_70 * x_78 + 48 x_70 * x_79 + 82 x_70 * x_80
   + 48 x_70 * x_81 + 24 x_70 * x_97 + 52 x_70 * x_98 + 20 x_70 * x_99
   + 22 x_70 * x_100 + 34 x_71 * x_73 + 42 x_71 * x_81 + 30 x_71 * x_83
   + 32 x_71 * x_87 + 92 x_71 * x_88 + 76 x_71 * x_89 + 66 x_71 * x_91
   + 70 x_71 * x_94 + 16 x_71 * x_95 + 18 x_72 * x_76 + 12 x_72 * x_87
   + 56 x_72 * x_95 + 78 x_72 * x_100 + 14 x_73 * x_82 + 56 x_73 * x_92
   + 24 x_73 * x_94 + 96 x_74 * x_75 + 94 x_74 * x_78 + 38 x_74 * x_87
   + 96 x_74 * x_100 + 88 x_75 * x_78 + 62 x_75 * x_87 + 66 x_75 * x_91
   + 68 x_75 * x_98 + 40 x_76 * x_77 + 50 x_76 * x_78 + 8 x_76 * x_82
   + 82 x_76 * x_85 + 68 x_76 * x_89 + 64 x_76 * x_90 + 100 x_76 * x_92
   + 32 x_76 * x_94 + 94 x_76 * x_98 + 44 x_77 * x_81 + 76 x_77 * x_86
   + 58 x_77 * x_98 + 34 x_78 * x_79 + 70 x_78 * x_83 + 58 x_78 * x_84
   + 32 x_78 * x_90 + 72 x_78 * x_91 + 100 x_78 * x_100 + 16 x_79 * x_82
   + 86 x_79 * x_83 + 30 x_79 * x_90 + 68 x_79 * x_96 + 60 x_79 * x_99
   + 48 x_80 * x_88 + 20 x_80 * x_91 + 8 x_80 * x_93 + 76 x_80 * x_94
   + 60 x_80 * x_96 + 10 x_81 * x_86 + 64 x_81 * x_94 + 84 x_81 * x_98
   + 2 x_81 * x_99 + 74 x_82 * x_84 + 88 x_82 * x_85 + 62 x_82 * x_88
   + 60 x_82 * x_90 + 66 x_82 * x_92 + 54 x_82 * x_95 + 10 x_82 * x_99
   + 66 x_83 * x_94 + 36 x_83 * x_98 + 82 x_84 * x_87 + 8 x_84 * x_92
   + 34 x_84 * x_93 + 48 x_84 * x_94 + 16 x_84 * x_98 + 72 x_86 * x_90
   + 16 x_86 * x_91 + 92 x_86 * x_95 + 40 x_86 * x_100 + 44 x_87 * x_89
   + 10 x_87 * x_90 + 42 x_87 * x_100 + 24 x_88 * x_94 + 10 x_88 * x_96
   + 52 x_88 * x_97 + 70 x_89 * x_91 + 86 x_89 * x_92 + 2 x_90 * x_92
   + 20 x_90 * x_93 + 56 x_90 * x_94 + 34 x_90 * x_95 + 14 x_90 * x_99
   + 32 x_92 * x_96 + 36 x_93 * x_94 + 36 x_93 * x_100 + 20 x_94 * x_96
   + 98 x_94 * x_97 + 30 x_94 * x_98 + 24 x_95 * x_100 + 44 x_96 * x_99
   + 20 x_97 * x_98 + 94 x_99 * x_100 ] / 2 
Subject To
 R0: 10 x_1 + 7 x_2 + 10 x_3 + 6 x_4 + 8 x_5 + 16 x_6 + 8 x_7 + 5 x_8 + x_9
   + 19 x_10 + 5 x_11 + 17 x_12 + 23 x_13 + 7 x_14 + 11 x_15 + 11 x_16
   + 21 x_17 + 9 x_18 + 8 x_19 + 6 x_20 + 3 x_21 + 16 x_22 + 23 x_23
   + 25 x_24 + 21 x_25 + 5 x_26 + x_27 + 3 x_28 + 2 x_29 + 22 x_30 + 7 x_31
   + 12 x_32 + 9 x_33 + x_34 + 19 x_35 + 20 x_36 + 13 x_37 + 13 x_38
   + 7 x_39 + 18 x_40 + 21 x_41 + 4 x_42 + 6 x_43 + 21 x_44 + 4 x_45
   + 12 x_46 + 17 x_47 + 19 x_48 + 21 x_49 + 11 x_50 + 5 x_51 + 25 x_52
   + 24 x_53 + 21 x_54 + 15 x_55 + 6 x_56 + 3 x_57 + 13 x_58 + 21 x_59
   + 21 x_60 + 3 x_61 + 21 x_62 + 15 x_63 + 19 x_64 + 3 x_65 + 16 x_66
   + 9 x_67 + 12 x_68 + 23 x_69 + 22 x_70 + 4 x_71 + 25 x_72 + 7 x_73
   + 4 x_74 + 18 x_75 + 25 x_76 + 25 x_77 + 17 x_78 + 15 x_79 + 16 x_80
   + 6 x_81 + 21 x_82 + 25 x_83 + 23 x_84 + 24 x_85 + 23 x_86 + 13 x_87
   + 24 x_88 + 5 x_89 + 8 x_90 + 21 x_91 + 9 x_92 + 4 x_93 + 13 x_94
   + 2 x_95 + 10 x_96 + 2 x_97 + 17 x_98 + 16 x_99 + 3 x_100 <= 855
Bounds
Binaries
 x_1 x_2 x_3 x_4 x_5 x_6 x_7 x_8 x_9 x_10 x_11 x_12 x_13 x_14 x_15 x_16
 x_17 x_18 x_19 x_20 x_21 x_22 x_23 x_24 x_25 x_26 x_27 x_28 x_29 x_30 x_31
 x_32 x_33 x_34 x_35 x_36 x_37 x_38 x_39 x_40 x_41 x_42 x_43 x_44 x_45 x_46
 x_47 x_48 x_49 x_50 x_51 x_52 x_53 x_54 x_55 x_56 x_57 x_58 x_59 x_60 x_61
 x_62 x_63 x_64 x_65 x_66 x_67 x_68 x_69 x_70 x_71 x_72 x_73 x_74 x_75 x_76
 x_77 x_78 x_79 x_80 x_81 x_82 x_83 x_84 x_85 x_86 x_87 x_88 x_89 x_90 x_91
 x_92 x_93 x_94 x_95 x_96 x_97 x_98 x_99 x_100
End
